\ENCODING=ISO-8859-1
\Problem name: IloCplex

Minimize
 obj1: 2.00001 x_0_2 + 3.4730872648319 x_0_1 + x_0_0
Subject To
 c1:  u_00 <= 1
 c2:  u_01 <= 1
 c3:  u_02 <= 4
 c4:  x_0_2 + x_0_1 >= 1
 c5:  - 1000 hap_1_0 + ap_0 <= 0
 c6:  x_0_2 + x_0_1 + 2 hap_1_0 <= 3
 c7:  - x_0_1 - x_0_0 >= -1
 c8:  - 1000 han_2_0 + an_0 <= 0
 c9:  - x_0_1 - x_0_0 + 2 han_2_0 <= 1
 c10: - x_0_2 + x_0_0 >= 0
 c11: - 1000 hb_01 + b_0_1 <= 0
 c12: - x_0_2 + x_0_0 + 2 hb_01 <= 2
 c13: - u_00 - an_0 + b_0_1 <= 2
 c14: x_0_0 - 2 hdu_0_0 <= 0
 c15: u_00 + an_0 - b_0_1 + 1000 hdu_0_0 <= 998
 c16: - u_01 + ap_0 - an_0 <= 4.4730872648319
 c17: x_0_1 - 2 hdu_0_1 <= 0
 c18: u_01 - ap_0 + an_0 + 1000 hdu_0_1 <= 995.526912735168
 c19: - u_02 + ap_0 - b_0_1 <= 3.00001
 c20: x_0_2 - 2 hdu_0_2 <= 0
 c21: u_02 - ap_0 + b_0_1 + 1000 hdu_0_2 <= 996.99999
Bounds
 0 <= x_0_2 <= 1
 0 <= x_0_1 <= 1
 0 <= hap_1_0 <= 1
 0 <= x_0_0 <= 1
 0 <= han_2_0 <= 1
 0 <= hb_01 <= 1
 0 <= hdu_0_0 <= 1
 0 <= hdu_0_1 <= 1
 0 <= hdu_0_2 <= 1
Binaries
 hap_1_0  han_2_0  hb_01  hdu_0_0  hdu_0_1  hdu_0_2 
End
